AES/1_3_4/ssaes_r1-20_c3_rw1_e4_f0_k1-20_aes_1base_box_aes_mc_bidirectional/ExperimentMinisat_r19_k13cnf_2011-10-29-153217/Result
WARNING: for repeatability, setting FPU to use double precision
============================[ Problem Statistics ]=============================
|                                                                             |
|  Number of variables:          1100                                         |
|  Number of clauses:            4836                                         |
|  Parse time:                   0.00 s                                       |
|  Eliminated clauses:           0.01 Mb                                      |
|  Simplification time:          0.00 s                                       |
|                                                                             |
=============================[ Search Statistics ]==============================
| Conflicts  |          ORIGINAL         |          LEARNT          | Progress |
|            |    Vars  Clauses Literals |    Limit  Clauses Lit/Cl |          |
================================================================================
|        100 |     760     3852    12672 |     1412      100     14 |  9.091 % |
|        250 |     760     3852    12672 |     1553      250     14 |  9.091 % |
|        475 |     760     3852    12672 |     1709      475     14 |  9.091 % |
|        812 |     760     3852    12672 |     1879      812     13 |  9.091 % |
|       1318 |     760     3852    12672 |     2067     1318     12 |  9.091 % |
|       2077 |     760     3852    12672 |     2274     2077     13 |  9.091 % |
|       3216 |     760     3852    12672 |     2502     2018     11 |  9.091 % |
===============================================================================
restarts              : 16
conflicts             : 3273           (13640 /sec)
decisions             : 3751           (0.00 % random) (15632 /sec)
propagations          : 1318669        (5495301 /sec)
conflict literals     : 39264          (47.00 % deleted)
Memory used           : 8.00 MB
CPU time              : 0.239963 s

SATISFIABLE
